70
1673
5
25
36
96
79
63
0 1
0 3
0 5
0 6
0 9
0 10
0 15
0 16
0 17
0 20
0 21
0 22
0 23
0 24
0 26
0 27
0 28
0 29
0 30
0 31
0 32
0 33
0 35
0 36
0 37
0 40
0 41
0 43
0 44
0 45
0 46
0 47
0 48
0 50
0 54
0 57
0 58
0 62
0 63
0 64
0 66
0 67
0 68
0 69
1 2
1 4
1 6
1 8
1 9
1 11
1 12
1 15
1 18
1 19
1 22
1 23
1 24
1 25
1 26
1 28
1 29
1 30
1 31
1 32
1 34
1 36
1 37
1 41
1 42
1 43
1 44
1 45
1 47
1 49
1 50
1 53
1 54
1 56
1 57
1 58
1 59
1 64
1 65
1 67
1 69
2 3
2 5
2 6
2 7
2 8
2 10
2 13
2 14
2 16
2 17
2 18
2 19
2 21
2 22
2 23
2 24
2 25
2 27
2 28
2 29
2 31
2 33
2 35
2 36
2 37
2 39
2 40
2 42
2 44
2 49
2 50
2 51
2 53
2 55
2 56
2 57
2 58
2 59
2 60
2 63
2 64
2 65
2 67
2 68
2 69
3 4
3 5
3 7
3 10
3 11
3 12
3 13
3 16
3 18
3 19
3 20
3 21
3 22
3 24
3 25
3 26
3 27
3 28
3 31
3 32
3 35
3 37
3 40
3 41
3 42
3 43
3 44
3 45
3 46
3 47
3 48
3 49
3 50
3 52
3 53
3 54
3 55
3 56
3 58
3 59
3 64
3 65
3 66
3 67
3 69
4 6
4 7
4 9
4 10
4 11
4 12
4 13
4 14
4 15
4 16
4 20
4 21
4 23
4 24
4 26
4 27
4 28
4 29
4 31
4 32
4 33
4 34
4 35
4 37
4 38
4 41
4 42
4 44
4 47
4 48
4 49
4 50
4 51
4 52
4 53
4 54
4 55
4 56
4 60
4 61
4 63
4 64
4 65
4 66
4 67
4 69
5 6
5 7
5 8
5 9
5 10
5 11
5 12
5 13
5 14
5 15
5 16
5 18
5 19
5 21
5 22
5 23
5 24
5 25
5 26
5 28
5 29
5 30
5 31
5 34
5 35
5 37
5 38
5 40
5 41
5 42
5 43
5 44
5 45
5 49
5 50
5 51
5 52
5 53
5 54
5 55
5 56
5 57
5 58
5 60
5 61
5 63
5 65
5 67
6 7
6 9
6 10
6 11
6 13
6 14
6 15
6 16
6 19
6 20
6 24
6 25
6 26
6 27
6 28
6 31
6 32
6 33
6 34
6 36
6 37
6 39
6 43
6 44
6 46
6 47
6 48
6 49
6 50
6 51
6 53
6 54
6 56
6 57
6 58
6 59
6 60
6 61
6 63
6 64
6 65
6 66
6 67
6 68
6 69
7 10
7 11
7 14
7 16
7 17
7 18
7 19
7 20
7 21
7 24
7 25
7 26
7 27
7 28
7 31
7 33
7 34
7 36
7 37
7 38
7 39
7 41
7 42
7 43
7 44
7 45
7 46
7 50
7 51
7 52
7 53
7 54
7 56
7 57
7 58
7 59
7 61
7 62
7 63
7 65
7 66
7 67
7 68
7 69
8 9
8 10
8 11
8 12
8 13
8 16
8 19
8 20
8 21
8 22
8 24
8 25
8 27
8 28
8 29
8 30
8 31
8 32
8 33
8 34
8 35
8 36
8 37
8 38
8 39
8 40
8 41
8 42
8 43
8 45
8 46
8 50
8 51
8 52
8 53
8 56
8 59
8 63
8 64
8 65
8 66
8 67
8 69
9 10
9 11
9 18
9 20
9 21
9 22
9 23
9 24
9 25
9 26
9 27
9 28
9 29
9 30
9 34
9 35
9 36
9 37
9 38
9 40
9 41
9 43
9 44
9 46
9 47
9 48
9 49
9 50
9 52
9 53
9 54
9 55
9 58
9 59
9 61
9 62
9 63
9 66
9 68
10 11
10 12
10 15
10 17
10 18
10 19
10 20
10 21
10 22
10 24
10 25
10 27
10 30
10 31
10 32
10 35
10 36
10 37
10 38
10 39
10 40
10 41
10 42
10 43
10 44
10 45
10 48
10 49
10 51
10 52
10 53
10 55
10 56
10 58
10 59
10 60
10 61
10 62
10 64
10 65
10 66
10 67
10 68
10 69
11 12
11 15
11 16
11 17
11 18
11 19
11 20
11 23
11 24
11 25
11 26
11 30
11 33
11 34
11 35
11 36
11 37
11 38
11 39
11 40
11 42
11 43
11 45
11 47
11 48
11 49
11 50
11 51
11 53
11 54
11 58
11 59
11 60
11 64
11 65
11 66
11 69
12 13
12 15
12 16
12 17
12 18
12 19
12 20
12 21
12 22
12 23
12 26
12 27
12 28
12 29
12 30
12 31
12 32
12 33
12 34
12 35
12 36
12 37
12 38
12 42
12 43
12 45
12 46
12 47
12 48
12 49
12 50
12 51
12 52
12 53
12 54
12 55
12 57
12 59
12 60
12 61
12 62
12 64
12 65
12 66
12 67
12 68
12 69
13 14
13 16
13 17
13 18
13 19
13 20
13 21
13 23
13 24
13 26
13 28
13 29
13 30
13 31
13 32
13 33
13 35
13 36
13 37
13 38
13 39
13 40
13 41
13 42
13 43
13 44
13 47
13 48
13 49
13 52
13 56
13 58
13 61
13 63
13 64
13 65
13 66
14 15
14 16
14 17
14 20
14 25
14 26
14 27
14 28
14 29
14 31
14 32
14 33
14 34
14 36
14 40
14 43
14 44
14 46
14 47
14 48
14 49
14 50
14 52
14 56
14 57
14 58
14 59
14 62
14 65
14 67
14 68
15 16
15 18
15 19
15 20
15 22
15 24
15 25
15 26
15 27
15 28
15 29
15 30
15 31
15 32
15 33
15 34
15 35
15 37
15 39
15 41
15 42
15 45
15 46
15 47
15 48
15 50
15 51
15 52
15 53
15 54
15 55
15 56
15 57
15 58
15 59
15 62
15 64
15 66
15 68
15 69
16 17
16 18
16 19
16 20
16 21
16 22
16 24
16 26
16 27
16 29
16 30
16 33
16 34
16 35
16 37
16 38
16 39
16 40
16 41
16 43
16 44
16 47
16 49
16 50
16 51
16 52
16 53
16 54
16 56
16 57
16 58
16 59
16 61
16 64
16 65
16 66
16 68
17 18
17 19
17 22
17 23
17 24
17 25
17 26
17 27
17 28
17 31
17 32
17 33
17 35
17 37
17 39
17 40
17 41
17 42
17 43
17 44
17 46
17 48
17 50
17 52
17 53
17 54
17 55
17 56
17 60
17 61
17 62
17 66
17 67
17 68
17 69
18 20
18 23
18 26
18 27
18 28
18 29
18 31
18 32
18 34
18 35
18 36
18 37
18 38
18 42
18 43
18 44
18 45
18 48
18 49
18 53
18 54
18 55
18 56
18 58
18 59
18 60
18 61
18 63
18 64
18 65
18 66
18 68
18 69
19 20
19 21
19 22
19 24
19 25
19 26
19 27
19 28
19 29
19 30
19 31
19 32
19 33
19 34
19 35
19 36
19 37
19 38
19 39
19 40
19 41
19 42
19 43
19 44
19 45
19 46
19 47
19 48
19 50
19 52
19 53
19 55
19 56
19 57
19 58
19 62
19 63
19 64
19 66
19 67
19 68
20 21
20 22
20 23
20 25
20 26
20 27
20 28
20 30
20 31
20 32
20 34
20 35
20 36
20 37
20 38
20 39
20 41
20 42
20 43
20 44
20 45
20 46
20 48
20 49
20 50
20 51
20 53
20 55
20 56
20 57
20 58
20 59
20 60
20 62
20 63
20 65
20 66
20 67
20 68
21 22
21 23
21 24
21 25
21 27
21 28
21 29
21 30
21 31
21 33
21 34
21 36
21 37
21 38
21 39
21 40
21 42
21 44
21 45
21 47
21 48
21 49
21 50
21 51
21 53
21 55
21 58
21 59
21 60
21 61
21 63
21 64
21 66
21 67
21 69
22 23
22 26
22 27
22 28
22 29
22 30
22 31
22 32
22 33
22 34
22 36
22 38
22 39
22 40
22 41
22 43
22 44
22 46
22 47
22 48
22 49
22 50
22 52
22 54
22 55
22 56
22 58
22 59
22 60
22 61
22 62
22 63
22 64
22 65
22 66
22 67
22 68
23 24
23 26
23 27
23 28
23 29
23 32
23 34
23 35
23 37
23 38
23 40
23 41
23 42
23 43
23 45
23 46
23 47
23 48
23 49
23 51
23 53
23 54
23 55
23 56
23 57
23 58
23 59
23 60
23 61
23 62
23 63
23 65
23 66
23 68
23 69
24 25
24 29
24 30
24 31
24 32
24 35
24 36
24 37
24 38
24 41
24 43
24 44
24 45
24 50
24 51
24 52
24 54
24 55
24 56
24 57
24 58
24 59
24 61
24 62
24 64
24 65
24 66
24 67
24 68
24 69
25 26
25 27
25 28
25 29
25 30
25 31
25 35
25 36
25 38
25 39
25 42
25 44
25 47
25 49
25 50
25 51
25 52
25 53
25 54
25 56
25 57
25 59
25 60
25 61
25 62
25 64
25 66
25 67
25 69
26 29
26 31
26 32
26 33
26 35
26 36
26 37
26 38
26 39
26 40
26 41
26 42
26 43
26 44
26 45
26 46
26 47
26 48
26 51
26 54
26 56
26 57
26 58
26 59
26 62
26 64
26 66
26 67
26 68
26 69
27 30
27 31
27 32
27 33
27 34
27 35
27 38
27 39
27 42
27 43
27 44
27 45
27 46
27 47
27 53
27 54
27 55
27 57
27 59
27 61
27 62
27 63
27 64
27 66
27 67
27 68
27 69
28 29
28 30
28 31
28 32
28 33
28 34
28 35
28 36
28 37
28 38
28 39
28 40
28 41
28 44
28 46
28 48
28 50
28 51
28 54
28 55
28 56
28 58
28 59
28 60
28 63
28 64
28 65
28 66
28 68
28 69
29 31
29 33
29 35
29 36
29 37
29 39
29 42
29 43
29 44
29 46
29 50
29 51
29 52
29 54
29 55
29 57
29 58
29 61
29 63
29 65
29 66
29 67
29 68
29 69
30 32
30 34
30 35
30 36
30 37
30 38
30 39
30 40
30 42
30 43
30 44
30 45
30 46
30 47
30 49
30 50
30 51
30 52
30 53
30 54
30 55
30 57
30 58
30 59
30 60
30 61
30 62
30 63
30 64
30 69
31 32
31 33
31 34
31 35
31 37
31 39
31 40
31 43
31 46
31 47
31 48
31 49
31 50
31 52
31 53
31 54
31 55
31 57
31 58
31 60
31 61
31 65
31 67
31 68
31 69
32 33
32 34
32 37
32 39
32 42
32 44
32 47
32 48
32 49
32 50
32 51
32 52
32 53
32 54
32 57
32 59
32 60
32 61
32 62
32 63
32 64
32 65
32 66
32 69
33 34
33 35
33 36
33 37
33 38
33 39
33 40
33 42
33 43
33 44
33 45
33 46
33 47
33 50
33 51
33 54
33 55
33 57
33 59
33 61
33 62
33 63
33 64
33 65
33 66
33 67
34 35
34 36
34 37
34 38
34 39
34 40
34 41
34 42
34 43
34 44
34 45
34 46
34 47
34 48
34 51
34 56
34 57
34 61
34 63
34 67
34 69
35 36
35 37
35 38
35 39
35 40
35 41
35 42
35 43
35 45
35 46
35 47
35 48
35 50
35 51
35 52
35 53
35 54
35 56
35 57
35 58
35 59
35 60
35 61
35 62
35 63
35 64
35 65
35 66
35 67
35 69
36 38
36 39
36 40
36 41
36 42
36 43
36 44
36 45
36 46
36 47
36 48
36 50
36 51
36 52
36 53
36 55
36 57
36 58
36 60
36 61
36 62
36 64
36 65
36 66
36 67
36 68
37 39
37 40
37 42
37 43
37 44
37 46
37 47
37 48
37 52
37 55
37 56
37 57
37 58
37 60
37 62
37 63
37 64
37 67
37 68
37 69
38 40
38 42
38 43
38 44
38 47
38 49
38 50
38 51
38 52
38 53
38 54
38 55
38 56
38 57
38 58
38 59
38 60
38 61
38 63
38 65
38 66
38 67
38 68
38 69
39 40
39 42
39 43
39 44
39 45
39 46
39 47
39 48
39 49
39 50
39 52
39 56
39 57
39 59
39 61
39 62
39 63
39 64
39 67
40 41
40 44
40 46
40 47
40 51
40 53
40 55
40 57
40 60
40 61
40 62
40 64
40 65
40 66
40 67
40 68
41 42
41 44
41 45
41 48
41 49
41 50
41 51
41 52
41 53
41 55
41 56
41 58
41 60
41 63
41 64
41 65
41 66
41 68
41 69
42 43
42 45
42 46
42 47
42 50
42 51
42 52
42 53
42 55
42 56
42 57
42 58
42 59
42 61
42 62
42 63
42 64
42 66
42 67
42 68
42 69
43 46
43 48
43 49
43 50
43 53
43 56
43 57
43 58
43 59
43 61
43 62
43 63
43 65
43 66
43 67
43 68
43 69
44 45
44 47
44 48
44 49
44 50
44 51
44 52
44 53
44 54
44 55
44 56
44 57
44 59
44 61
44 62
44 64
44 65
44 66
44 67
44 69
45 46
45 47
45 48
45 49
45 50
45 52
45 54
45 55
45 56
45 57
45 58
45 61
45 62
45 63
45 64
45 65
45 68
45 69
46 51
46 52
46 53
46 56
46 58
46 59
46 62
46 63
46 65
46 66
46 67
46 69
47 48
47 49
47 51
47 52
47 55
47 57
47 58
47 62
47 64
47 66
47 67
47 68
47 69
48 49
48 53
48 54
48 56
48 57
48 58
48 59
48 60
48 61
48 62
48 63
48 64
48 66
48 67
48 68
48 69
49 50
49 51
49 54
49 55
49 56
49 58
49 59
49 60
49 61
49 62
49 63
49 64
49 65
49 67
49 68
50 51
50 52
50 54
50 55
50 58
50 59
50 60
50 64
50 65
50 66
50 68
51 53
51 54
51 55
51 56
51 57
51 58
51 61
51 65
51 66
51 67
51 68
51 69
52 53
52 54
52 56
52 57
52 58
52 59
52 60
52 61
52 62
52 64
52 66
52 67
52 68
52 69
53 55
53 59
53 65
53 66
53 67
53 69
54 55
54 56
54 58
54 59
54 61
54 63
54 64
54 65
54 68
54 69
55 56
55 57
55 60
55 62
55 63
55 64
55 65
55 66
55 67
55 68
55 69
56 57
56 59
56 60
56 61
56 62
56 63
56 64
56 67
56 68
56 69
57 59
57 60
57 62
57 64
57 66
57 67
58 59
58 60
58 61
58 63
58 64
58 65
58 67
58 68
59 60
59 61
59 66
59 67
59 69
60 62
60 63
60 64
60 65
60 66
60 67
60 68
60 69
61 63
61 65
61 66
61 68
61 69
62 63
62 64
62 65
62 66
62 67
62 68
63 64
63 65
63 66
63 68
64 65
64 68
64 69
65 66
65 67
66 69
67 68
8 63 43 33 2 52 48 9 20 62 1 19 41 12
60 3 22 27 56 58 10 6 32 50 46 36 68 66
34 5 7 30 44 25 13 47 37 16 49 15 21 29
64 35 31 26 11 28 17 23 57 39 45 61 38 0
59 4 42 51 67 14 65 54 69 55 24 40 18 53
